data/solutions/recovery/degenerate/intermediate/flexible/degenerate_intermediate_instance21/46.sol
Elapsed time: 100.11
Upper bound: 28518588.0
Planning weighted value: 1.00710496557e+11
C[0]=28518588.0
C[1]=28470323.0
C[2]=28356059.0
C[3]=28344546.0
C[4]=28311692.0
C[5]=28173954.0
C[6]=28093901.0
C[7]=28056070.0
C[8]=27394823.0
C[9]=27278590.0
C[10]=0.0
C[11]=0.0
y[0]=5
y[1]=8
y[2]=8
y[3]=1
y[4]=7
y[5]=3
y[6]=6
y[7]=1
y[8]=2
y[9]=4
y[10]=3
y[11]=5
y[12]=8
y[13]=5
y[14]=9
y[15]=9
y[16]=4
y[17]=6
y[18]=5
y[19]=2
y[20]=9
y[21]=0
y[22]=0
y[23]=0
y[24]=6
y[25]=5
y[26]=5
y[27]=4
y[28]=6
y[29]=9
y[30]=0
y[31]=4
y[32]=4
y[33]=2
y[34]=6
y[35]=1
y[36]=8
y[37]=7
y[38]=3
y[39]=9
y[40]=9
y[41]=7
y[42]=7
y[43]=8
y[44]=3
y[45]=8
y[46]=8
y[47]=2
y[48]=6
y[49]=1
y[50]=4
y[51]=2
y[52]=1
y[53]=9
y[54]=2
y[55]=1
y[56]=1
y[57]=0
y[58]=5
y[59]=3
y[60]=4
y[61]=7
y[62]=7
y[63]=3
y[64]=6
