data/solutions/recovery/degenerate/intermediate/flexible/degenerate_intermediate_instance21/46.log

Log started (V12.6.3.0) Sat Apr 21 12:59:06 2018

New value for default parallel thread count: 1

Problem '/tmp/tmpCJzHY9.pyomo.lp' read.
Read time = 0.01 sec. (0.58 ticks)

Problem name         : /tmp/tmpCJzHY9.pyomo.lp
Objective sense      : Minimize
Variables            :     794  [Nneg: 1,  Binary: 780,  General Integer: 13]
Objective nonzeros   :       1
Linear constraints   :     157  [Less: 77,  Equal: 80]
  Nonzeros           :   41016
  RHS nonzeros       :     131

Variables            : Min LB: 0.000000         Max UB: 1.000000       
Objective nonzeros   : Min   : 1.000000         Max   : 1.000000       
Linear constraints   :
  Nonzeros           : Min   : 1.000000         Max   : 8298339.       
  RHS nonzeros       : Min   : 1.000000         Max   : 7.000000       
Tried aggregator 2 times.
MIP Presolve eliminated 71 rows and 160 columns.
Aggregator did 3 substitutions.
Reduced MIP has 83 rows, 631 columns, and 1738 nonzeros.
Reduced MIP has 620 binaries, 11 generals, 0 SOSs, and 0 indicators.
Presolve time = 0.01 sec. (7.35 ticks)
Found incumbent of value 1.0442753e+08 after 0.01 sec. (8.45 ticks)
Probing time = 0.00 sec. (1.74 ticks)
Cover probing fixed 0 vars, tightened 21 bounds.
Tried aggregator 2 times.
Aggregator did 10 substitutions.
Reduced MIP has 73 rows, 621 columns, and 1718 nonzeros.
Reduced MIP has 620 binaries, 1 generals, 0 SOSs, and 0 indicators.
Presolve time = 0.00 sec. (1.61 ticks)
Probing time = 0.00 sec. (0.95 ticks)
Cover probing fixed 0 vars, tightened 6 bounds.
Clique table members: 62.
MIP emphasis: balance optimality and feasibility.
MIP search method: dynamic search.
Parallel mode: none, using 1 thread.
Root relaxation solution time = 0.00 sec. (0.55 ticks)

        Nodes                                         Cuts/
   Node  Left     Objective  IInf  Best Integer    Best Bound    ItCnt     Gap

*     0+    0                       1.04428e+08        0.0000           100.00%
      0     0   2.80999e+07    17   1.04428e+08   2.80999e+07       21   73.09%
*     0+    0                       3.32093e+07   2.80999e+07            15.39%
      0     0   2.80999e+07    24   3.32093e+07      Fract: 8       36   15.39%
*     0+    0                       3.24872e+07   2.80999e+07            13.50%
      0     0   2.80999e+07    25   3.24872e+07       Cuts: 6       54   13.50%
*     0+    0                       3.19801e+07   2.80999e+07            12.13%
*     0+    0                       3.12395e+07   2.80999e+07            10.05%
*     0+    0                       3.07568e+07   2.80999e+07             8.64%
      0     2   2.80999e+07    17   3.07568e+07   2.80999e+07       54    8.64%
Elapsed time = 0.03 sec. (37.62 ticks, tree = 0.01 MB, solutions = 5)
*   180+  160                       3.05213e+07   2.80999e+07             7.93%
*   260+  235                       3.04646e+07   2.80999e+07             7.76%
*   350+  298                       3.02226e+07   2.80999e+07             7.02%
*   500+  399                       3.00925e+07   2.80999e+07             6.62%
*   500+  399                       3.00722e+07   2.80999e+07             6.56%
*   501+  266                       3.00522e+07   2.80999e+07             6.50%
    541   287   2.83008e+07    22   3.00522e+07   2.80999e+07     2943    6.50%
    542   288   2.83020e+07    22   3.00522e+07   2.80999e+07     2944    6.50%
    543   288   2.83024e+07    22   3.00522e+07   2.80999e+07     2945    6.50%
    544   288   2.83570e+07    16   3.00522e+07   2.80999e+07     2949    6.50%
    545   287   2.84872e+07    20   3.00522e+07   2.80999e+07     2982    6.50%
    546   287   2.85467e+07    20   3.00522e+07   2.80999e+07     2984    6.50%
    547   288   2.85467e+07    21   3.00522e+07   2.80999e+07     2994    6.50%
    548   288   2.85511e+07    22   3.00522e+07   2.80999e+07     2995    6.50%
    549   288   2.85525e+07    19   3.00522e+07   2.80999e+07     2997    6.50%
*   601+  231                       2.98101e+07   2.80999e+07             5.74%
*   601+  181                       2.90316e+07   2.80999e+07             3.21%
*   701+  194                       2.89947e+07   2.80999e+07             3.09%
*  1001+  327                       2.89879e+07   2.80999e+07             3.06%
*  1001+  322                       2.88883e+07   2.80999e+07             2.73%
*  1001+  322                       2.88746e+07   2.80999e+07             2.68%
*  1101+  374                       2.88730e+07   2.80999e+07             2.68%
*  1101+  374                       2.88578e+07   2.80999e+07             2.63%
   1191   423   2.83089e+07    19   2.88578e+07   2.80999e+07     5545    2.63%
Elapsed time = 0.76 sec. (991.63 ticks, tree = 0.21 MB, solutions = 19)
   3025  1853   2.80999e+07    25   2.88578e+07   2.80999e+07    13285    2.63%
   3026  1854   2.80999e+07    24   2.88578e+07   2.80999e+07    13291    2.63%
   3027  1855   2.80999e+07    23   2.88578e+07   2.80999e+07    13298    2.63%
   3028  1856   2.80999e+07    23   2.88578e+07   2.80999e+07    13311    2.63%
   3029  1857   2.80999e+07    20   2.88578e+07   2.80999e+07    13318    2.63%
   3030  1858   2.81006e+07    23   2.88578e+07   2.80999e+07    13349    2.63%
   3031  1859   2.81416e+07    21   2.88578e+07   2.80999e+07    13363    2.63%
   3032  1860   2.81593e+07    25   2.88578e+07   2.80999e+07    13370    2.63%
   3033  1861   2.81907e+07    25   2.88578e+07   2.80999e+07    13376    2.63%
   3034  1862   2.81927e+07    25   2.88578e+07   2.80999e+07    13377    2.63%
Elapsed time = 1.48 sec. (1950.63 ticks, tree = 0.90 MB, solutions = 19)
   5636  3956   2.80999e+07    29   2.88578e+07   2.80999e+07    31119    2.63%
   5637  3957   2.80999e+07    30   2.88578e+07   2.80999e+07    31142    2.63%
   5638  3958   2.84730e+07    23   2.88578e+07   2.80999e+07    31170    2.63%
   5639  3959   2.84769e+07    23   2.88578e+07   2.80999e+07    31172    2.63%
   5640  3960   2.85055e+07    24   2.88578e+07   2.80999e+07    31176    2.63%
   5641  3961   2.85092e+07    24   2.88578e+07   2.80999e+07    31177    2.63%
   5642  3962   2.85455e+07    21   2.88578e+07   2.80999e+07    31178    2.63%
   5643  3963   2.85487e+07    19   2.88578e+07   2.80999e+07    31179    2.63%
   5644  3963   2.85505e+07    21   2.88578e+07   2.80999e+07    31182    2.63%
   5645  3964   2.85505e+07    21   2.88578e+07   2.80999e+07    31184    2.63%
Elapsed time = 2.13 sec. (2907.10 ticks, tree = 1.91 MB, solutions = 19)
   7005  4981   2.83578e+07    48   2.88578e+07   2.80999e+07    50120    2.63%
   7006  4982   2.83587e+07    49   2.88578e+07   2.80999e+07    50123    2.63%
   7007  4983   2.84487e+07    49   2.88578e+07   2.80999e+07    50157    2.63%
   7008  4984   2.84502e+07    47   2.88578e+07   2.80999e+07    50161    2.63%
   7009  4985   2.84550e+07    49   2.88578e+07   2.80999e+07    50169    2.63%
   7010  4986   2.84555e+07    50   2.88578e+07   2.80999e+07    50172    2.63%
   7011  4987   2.84563e+07    50   2.88578e+07   2.80999e+07    50173    2.63%
   7012  4988   2.84586e+07    51   2.88578e+07   2.80999e+07    50175    2.63%
   7013  4989   2.84618e+07    51   2.88578e+07   2.80999e+07    50177    2.63%
   7014  4990   2.84620e+07    51   2.88578e+07   2.80999e+07    50178    2.63%
Elapsed time = 2.75 sec. (3867.26 ticks, tree = 2.49 MB, solutions = 19)
   8030  5733   2.80999e+07    37   2.88578e+07   2.80999e+07    68203    2.63%
   8031  5734   2.80999e+07    35   2.88578e+07   2.80999e+07    68311    2.63%
   8032  5735   2.80999e+07    41   2.88578e+07   2.80999e+07    68389    2.63%
   8033  5736   2.80999e+07    42   2.88578e+07   2.80999e+07    68511    2.63%
   8034  5737   2.80999e+07    41   2.88578e+07   2.80999e+07    68515    2.63%
   8035  5738   2.80999e+07    28   2.88578e+07   2.80999e+07    68554    2.63%
   8036  5739   2.80999e+07    30   2.88578e+07   2.80999e+07    68574    2.63%
   8037  5740   2.81599e+07    29   2.88578e+07   2.80999e+07    68633    2.63%
   8038  5741   2.81715e+07    26   2.88578e+07   2.80999e+07    68731    2.63%
   8039  5742   2.81722e+07    25   2.88578e+07   2.80999e+07    68734    2.63%
Elapsed time = 3.37 sec. (4854.64 ticks, tree = 2.84 MB, solutions = 19)
   8897  6360   2.82963e+07    36   2.88578e+07   2.80999e+07    85134    2.63%
   8898  6361   2.84742e+07    28   2.88578e+07   2.80999e+07    85154    2.63%
   8899  6361   2.86288e+07    28   2.88578e+07   2.80999e+07    85155    2.63%
   8900  6360        cutoff         2.88578e+07   2.80999e+07    85157    2.63%
   8901  6361   2.81801e+07    34   2.88578e+07   2.80999e+07    85273    2.63%
   8902  6362   2.81813e+07    34   2.88578e+07   2.80999e+07    85275    2.63%
   8903  6363   2.81825e+07    35   2.88578e+07   2.80999e+07    85280    2.63%
   8904  6364   2.81826e+07    33   2.88578e+07   2.80999e+07    85282    2.63%
   8905  6365   2.82428e+07    29   2.88578e+07   2.80999e+07    85294    2.63%
   8906  6366   2.83147e+07    31   2.88578e+07   2.80999e+07    85297    2.63%
Elapsed time = 3.99 sec. (5819.72 ticks, tree = 3.14 MB, solutions = 19)
  10296  7563   2.80999e+07    28   2.88578e+07   2.80999e+07   102323    2.63%
  10297  7564   2.81175e+07    28   2.88578e+07   2.80999e+07   102376    2.63%
  10298  7565   2.81033e+07    26   2.88578e+07   2.80999e+07   102432    2.63%
  10299  7566   2.81063e+07    27   2.88578e+07   2.80999e+07   102435    2.63%
  10300  7567   2.82234e+07    27   2.88578e+07   2.80999e+07   102443    2.63%
  10301  7568   2.81063e+07    28   2.88578e+07   2.80999e+07   102444    2.63%
  10302  7569   2.81063e+07    26   2.88578e+07   2.80999e+07   102445    2.63%
  10303  7570   2.81686e+07    28   2.88578e+07   2.80999e+07   102460    2.63%
  10304  7569        cutoff         2.88578e+07   2.80999e+07   102469    2.63%
  10305  7568        cutoff         2.88578e+07   2.80999e+07   102489    2.63%
Elapsed time = 4.61 sec. (6779.95 ticks, tree = 3.75 MB, solutions = 19)
* 10461+ 7683                       2.88425e+07   2.80999e+07             2.57%
* 10461+ 7548                       2.87814e+07   2.80999e+07             2.37%
  11294  8263   2.80999e+07    22   2.87814e+07   2.80999e+07   114396    2.37%
  11295  8264   2.80999e+07    24   2.87814e+07   2.80999e+07   114412    2.37%
  11296  8265   2.80999e+07    28   2.87814e+07   2.80999e+07   114446    2.37%
  11297  8266   2.80999e+07    27   2.87814e+07   2.80999e+07   114448    2.37%
  11298  8267   2.80999e+07    26   2.87814e+07   2.80999e+07   114458    2.37%
  11299  8268   2.80999e+07    25   2.87814e+07   2.80999e+07   114480    2.37%
  11300  8269   2.80999e+07    27   2.87814e+07   2.80999e+07   114520    2.37%
  11301  8270   2.80999e+07    31   2.87814e+07   2.80999e+07   114564    2.37%
  11302  8271   2.80999e+07    37   2.87814e+07   2.80999e+07   114654    2.37%
  11303  8272   2.80999e+07    25   2.87814e+07   2.80999e+07   114724    2.37%
Elapsed time = 5.40 sec. (7744.46 ticks, tree = 4.33 MB, solutions = 21)
  13099  9748   2.86784e+07    18   2.87814e+07   2.80999e+07   135339    2.37%
  13100  9749   2.86784e+07    14   2.87814e+07   2.80999e+07   135341    2.37%
  13101  9748        cutoff         2.87814e+07   2.80999e+07   135346    2.37%
  13102  9747        cutoff         2.87814e+07   2.80999e+07   135349    2.37%
  13103  9748   2.80999e+07    43   2.87814e+07   2.80999e+07   135428    2.37%
  13104  9749   2.80999e+07    28   2.87814e+07   2.80999e+07   135496    2.37%
  13105  9750   2.80999e+07    28   2.87814e+07   2.80999e+07   135497    2.37%
  13106  9751   2.80999e+07    28   2.87814e+07   2.80999e+07   135501    2.37%
  13107  9752   2.80999e+07    29   2.87814e+07   2.80999e+07   135504    2.37%
  13108  9753   2.80999e+07    29   2.87814e+07   2.80999e+07   135518    2.37%
Elapsed time = 6.04 sec. (8705.66 ticks, tree = 5.07 MB, solutions = 21)
  14665 10975        cutoff         2.87814e+07   2.80999e+07   154232    2.37%
  14666 10974        cutoff         2.87814e+07   2.80999e+07   154235    2.37%
  14667 10975   2.83570e+07    16   2.87814e+07   2.80999e+07   154239    2.37%
  14668 10976   2.83570e+07    15   2.87814e+07   2.80999e+07   154246    2.37%
  14669 10977   2.83570e+07    17   2.87814e+07   2.80999e+07   154251    2.37%
  14670 10977   2.83570e+07    16   2.87814e+07   2.80999e+07   154265    2.37%
  14671 10978   2.83570e+07    19   2.87814e+07   2.80999e+07   154275    2.37%
  14672 10979   2.83570e+07    17   2.87814e+07   2.80999e+07   154276    2.37%
  14673 10980   2.83570e+07    15   2.87814e+07   2.80999e+07   154279    2.37%
  19301 14437   2.80999e+07    24   2.87814e+07   2.80999e+07   212686    2.37%
Elapsed time = 8.53 sec. (12520.36 ticks, tree = 7.38 MB, solutions = 21)
  25906 19165   2.80999e+07    23   2.87814e+07   2.80999e+07   289262    2.37%
  25907 19166   2.80999e+07    24   2.87814e+07   2.80999e+07   289268    2.37%
  25908 19167   2.80999e+07    24   2.87814e+07   2.80999e+07   289276    2.37%
  25909 19168   2.80999e+07    29   2.87814e+07   2.80999e+07   289403    2.37%
  25910 19169   2.80999e+07    27   2.87814e+07   2.80999e+07   289417    2.37%
  25911 19170   2.80999e+07    27   2.87814e+07   2.80999e+07   289419    2.37%
  25912 19171   2.80999e+07    27   2.87814e+07   2.80999e+07   289420    2.37%
  25913 19172   2.80999e+07    27   2.87814e+07   2.80999e+07   289421    2.37%
  25914 19173   2.80999e+07    27   2.87814e+07   2.80999e+07   289422    2.37%
  25915 19174   2.80999e+07    26   2.87814e+07   2.80999e+07   289424    2.37%
Elapsed time = 11.16 sec. (16341.75 ticks, tree = 10.22 MB, solutions = 21)
  32983 24117        cutoff         2.87814e+07   2.80999e+07   367639    2.37%
  32984 24116        cutoff         2.87814e+07   2.80999e+07   367649    2.37%
  32985 24115        cutoff         2.87814e+07   2.80999e+07   367668    2.37%
  32986 24116   2.82418e+07    22   2.87814e+07   2.80999e+07   367737    2.37%
  32987 24117   2.82433e+07    22   2.87814e+07   2.80999e+07   367742    2.37%
  32988 24118   2.82444e+07    23   2.87814e+07   2.80999e+07   367744    2.37%
  32989 24119   2.82444e+07    23   2.87814e+07   2.80999e+07   367747    2.37%
  32990 24120   2.82503e+07    25   2.87814e+07   2.80999e+07   367753    2.37%
  32991 24121   2.82512e+07    27   2.87814e+07   2.80999e+07   367756    2.37%
  32992 24122   2.82528e+07    24   2.87814e+07   2.80999e+07   367764    2.37%
Elapsed time = 13.82 sec. (20164.91 ticks, tree = 12.68 MB, solutions = 21)
  40770 29128   2.80999e+07    24   2.87814e+07   2.80999e+07   450559    2.37%
  40771 29129   2.80999e+07    22   2.87814e+07   2.80999e+07   450563    2.37%
  40772 29128        cutoff         2.87814e+07   2.80999e+07   450610    2.37%
  40773 29129   2.85065e+07    15   2.87814e+07   2.80999e+07   450650    2.37%
  40774 29130   2.85065e+07    16   2.87814e+07   2.80999e+07   450651    2.37%
  40775 29131   2.85065e+07    15   2.87814e+07   2.80999e+07   450652    2.37%
  40776 29132   2.85065e+07    15   2.87814e+07   2.80999e+07   450655    2.37%
  40777 29133   2.85065e+07    19   2.87814e+07   2.80999e+07   450663    2.37%
  40778 29134   2.85260e+07    18   2.87814e+07   2.80999e+07   450687    2.37%
  40779 29134   2.86571e+07    13   2.87814e+07   2.80999e+07   450694    2.37%
Elapsed time = 16.47 sec. (23986.94 ticks, tree = 15.19 MB, solutions = 21)
  48003 33113   2.81277e+07    25   2.87814e+07   2.80999e+07   531563    2.37%
  48004 33114   2.81277e+07    23   2.87814e+07   2.80999e+07   531564    2.37%
  48005 33115   2.81282e+07    23   2.87814e+07   2.80999e+07   531565    2.37%
  48006 33114        cutoff         2.87814e+07   2.80999e+07   531579    2.37%
  48007 33115   2.81282e+07    24   2.87814e+07   2.80999e+07   531580    2.37%
  48008 33116   2.81310e+07    26   2.87814e+07   2.80999e+07   531584    2.37%
  48009 33117   2.81314e+07    26   2.87814e+07   2.80999e+07   531585    2.37%
  48010 33118   2.81316e+07    25   2.87814e+07   2.80999e+07   531586    2.37%
  48011 33119   2.81344e+07    24   2.87814e+07   2.80999e+07   531591    2.37%
  48012 33120   2.81384e+07    29   2.87814e+07   2.80999e+07   531596    2.37%
Elapsed time = 19.47 sec. (27806.46 ticks, tree = 18.16 MB, solutions = 21)
  55161 37614   2.80999e+07    28   2.87814e+07   2.80999e+07   605252    2.37%
  55162 37615   2.80999e+07    25   2.87814e+07   2.80999e+07   605255    2.37%
  55163 37616   2.80999e+07    24   2.87814e+07   2.80999e+07   605262    2.37%
  55164 37617   2.80999e+07    22   2.87814e+07   2.80999e+07   605263    2.37%
  55165 37618   2.80999e+07    23   2.87814e+07   2.80999e+07   605270    2.37%
  55166 37619   2.80999e+07    22   2.87814e+07   2.80999e+07   605277    2.37%
  55167 37620   2.80999e+07    20   2.87814e+07   2.80999e+07   605280    2.37%
  55168 37621   2.80999e+07    22   2.87814e+07   2.80999e+07   605289    2.37%
  55169 37622   2.80999e+07    21   2.87814e+07   2.80999e+07   605302    2.37%
  55170 37623   2.80999e+07    22   2.87814e+07   2.80999e+07   605319    2.37%
Elapsed time = 22.93 sec. (31623.95 ticks, tree = 20.42 MB, solutions = 21)
  62327 41929   2.81610e+07    23   2.87814e+07   2.80999e+07   683177    2.37%
  62328 41930   2.81786e+07    23   2.87814e+07   2.80999e+07   683184    2.37%
  62329 41931   2.83274e+07    26   2.87814e+07   2.80999e+07   683203    2.37%
  62330 41932   2.83274e+07    25   2.87814e+07   2.80999e+07   683204    2.37%
  62331 41933   2.83304e+07    25   2.87814e+07   2.80999e+07   683207    2.37%
  62332 41934   2.84920e+07    21   2.87814e+07   2.80999e+07   683214    2.37%
  62333 41935   2.85277e+07    22   2.87814e+07   2.80999e+07   683219    2.37%
  62334 41936   2.85292e+07    23   2.87814e+07   2.80999e+07   683220    2.37%
  62335 41936   2.85292e+07    22   2.87814e+07   2.80999e+07   683222    2.37%
  62336 41936   2.85292e+07    22   2.87814e+07   2.80999e+07   683223    2.37%
Elapsed time = 26.40 sec. (35444.04 ticks, tree = 22.58 MB, solutions = 21)
* 63901+42647                       2.87767e+07   2.80999e+07             2.35%
* 63901+41707                       2.87031e+07   2.80999e+07             2.10%
  69712 44290   2.81114e+07    29   2.87031e+07   2.80999e+07   760236    2.10%
  69713 44291   2.81115e+07    27   2.87031e+07   2.80999e+07   760238    2.10%
  69714 44292   2.81116e+07    26   2.87031e+07   2.80999e+07   760240    2.10%
  69715 44293   2.81116e+07    27   2.87031e+07   2.80999e+07   760241    2.10%
  69716 44294   2.81117e+07    26   2.87031e+07   2.80999e+07   760243    2.10%
  69717 44295   2.81117e+07    26   2.87031e+07   2.80999e+07   760244    2.10%
  69718 44296   2.81117e+07    26   2.87031e+07   2.80999e+07   760245    2.10%
  69719 44297   2.81117e+07    26   2.87031e+07   2.80999e+07   760247    2.10%
  69720 44298   2.81117e+07    25   2.87031e+07   2.80999e+07   760249    2.10%
  69721 44299   2.81117e+07    25   2.87031e+07   2.80999e+07   760250    2.10%
Elapsed time = 29.89 sec. (39261.92 ticks, tree = 23.77 MB, solutions = 23)
  77264 48965   2.80999e+07    25   2.87031e+07   2.80999e+07   834089    2.10%
  77265 48966   2.80999e+07    25   2.87031e+07   2.80999e+07   834111    2.10%
  77266 48967   2.80999e+07    23   2.87031e+07   2.80999e+07   834121    2.10%
  77267 48968   2.80999e+07    21   2.87031e+07   2.80999e+07   834124    2.10%
  77268 48969   2.80999e+07    21   2.87031e+07   2.80999e+07   834130    2.10%
  77269 48970   2.80999e+07    22   2.87031e+07   2.80999e+07   834143    2.10%
  77270 48971   2.80999e+07    26   2.87031e+07   2.80999e+07   834173    2.10%
  77271 48972   2.80999e+07    23   2.87031e+07   2.80999e+07   834202    2.10%
  77272 48973   2.81828e+07    24   2.87031e+07   2.80999e+07   834232    2.10%
  77273 48974   2.81921e+07    23   2.87031e+07   2.80999e+07   834235    2.10%
Elapsed time = 33.42 sec. (43082.65 ticks, tree = 26.10 MB, solutions = 23)
* 80201+49606                       2.86604e+07   2.80999e+07             1.96%
  82881 51379   2.80999e+07    30   2.86604e+07   2.80999e+07   908979    1.96%
  82882 51380   2.80999e+07    23   2.86604e+07   2.80999e+07   908989    1.96%
  82883 51381   2.80999e+07    22   2.86604e+07   2.80999e+07   908995    1.96%
  82884 51382   2.80999e+07    24   2.86604e+07   2.80999e+07   908998    1.96%
  82885 51383   2.80999e+07    28   2.86604e+07   2.80999e+07   909003    1.96%
  82886 51384   2.80999e+07    29   2.86604e+07   2.80999e+07   909004    1.96%
  82887 51385   2.80999e+07    28   2.86604e+07   2.80999e+07   909006    1.96%
  82888 51386   2.81087e+07    27   2.86604e+07   2.80999e+07   909058    1.96%
  82889 51387   2.81943e+07    22   2.86604e+07   2.80999e+07   909165    1.96%
  82890 51388   2.81943e+07    22   2.86604e+07   2.80999e+07   909167    1.96%
Elapsed time = 36.96 sec. (46907.10 ticks, tree = 27.34 MB, solutions = 24)
  90556 56606        cutoff         2.86604e+07   2.80999e+07   990515    1.96%
  90557 56606   2.86296e+07    16   2.86604e+07   2.80999e+07   990535    1.96%
  90558 56606   2.86300e+07    15   2.86604e+07   2.80999e+07   990536    1.96%
  90559 56605   2.86310e+07    15   2.86604e+07   2.80999e+07   990539    1.96%
  90560 56606   2.82496e+07    28   2.86604e+07   2.80999e+07   990644    1.96%
  90561 56607   2.82496e+07    27   2.86604e+07   2.80999e+07   990650    1.96%
  90562 56608   2.82496e+07    28   2.86604e+07   2.80999e+07   990653    1.96%
  90563 56609   2.82497e+07    28   2.86604e+07   2.80999e+07   990654    1.96%
  90564 56610   2.82497e+07    28   2.86604e+07   2.80999e+07   990656    1.96%
  90565 56611   2.82497e+07    27   2.86604e+07   2.80999e+07   990660    1.96%
Elapsed time = 40.44 sec. (50727.44 ticks, tree = 30.03 MB, solutions = 24)
  97996 61572   2.83502e+07    24   2.86604e+07   2.80999e+07  1067789    1.96%
  97997 61573   2.83502e+07    24   2.86604e+07   2.80999e+07  1067790    1.96%
  97998 61574   2.83502e+07    25   2.86604e+07   2.80999e+07  1067792    1.96%
  97999 61575   2.83502e+07    27   2.86604e+07   2.80999e+07  1067795    1.96%
  98000 61576   2.83502e+07    23   2.86604e+07   2.80999e+07  1067796    1.96%
  98001 61577   2.83502e+07    24   2.86604e+07   2.80999e+07  1067798    1.96%
  98002 61578   2.83515e+07    24   2.86604e+07   2.80999e+07  1067799    1.96%
  98003 61579   2.83515e+07    23   2.86604e+07   2.80999e+07  1067800    1.96%
  98004 61580   2.83515e+07    27   2.86604e+07   2.80999e+07  1067804    1.96%
  98005 61581   2.84107e+07    22   2.86604e+07   2.80999e+07  1067809    1.96%
Elapsed time = 43.89 sec. (54544.17 ticks, tree = 32.56 MB, solutions = 24)
 104796 66277   2.85562e+07    19   2.86604e+07   2.80999e+07  1146315    1.96%
 104797 66276        cutoff         2.86604e+07   2.80999e+07  1146316    1.96%
 104798 66277   2.85562e+07    18   2.86604e+07   2.80999e+07  1146318    1.96%
 104799 66277   2.85562e+07    17   2.86604e+07   2.80999e+07  1146319    1.96%
 104800 66278   2.85562e+07    17   2.86604e+07   2.80999e+07  1146320    1.96%
 104801 66279   2.86570e+07    18   2.86604e+07   2.80999e+07  1146326    1.96%
 104802 66279   2.86570e+07    18   2.86604e+07   2.80999e+07  1146328    1.96%
 104803 66278        cutoff         2.86604e+07   2.80999e+07  1146330    1.96%
 104804 66277        cutoff         2.86604e+07   2.80999e+07  1146331    1.96%
 104805 66276    infeasible         2.86604e+07   2.80999e+07  1146331    1.96%
Elapsed time = 47.40 sec. (58360.83 ticks, tree = 36.83 MB, solutions = 24)
*108001+65186                       2.85792e+07   2.80999e+07             1.68%
 110611 66958   2.83060e+07    23   2.85792e+07   2.80999e+07  1219215    1.68%
 110612 66959   2.83709e+07    16   2.85792e+07   2.80999e+07  1219220    1.68%
 110613 66960   2.83709e+07    17   2.85792e+07   2.80999e+07  1219223    1.68%
 110614 66959        cutoff         2.85792e+07   2.80999e+07  1219226    1.68%
 110615 66958    infeasible         2.85792e+07   2.80999e+07  1219226    1.68%
 110616 66959   2.80999e+07    26   2.85792e+07   2.80999e+07  1219262    1.68%
 110617 66960   2.80999e+07    23   2.85792e+07   2.80999e+07  1219274    1.68%
 110618 66961   2.81094e+07    35   2.85792e+07   2.80999e+07  1219363    1.68%
 110619 66962   2.81213e+07    36   2.85792e+07   2.80999e+07  1219367    1.68%
 110620 66963   2.81271e+07    30   2.85792e+07   2.80999e+07  1219369    1.68%
Elapsed time = 50.87 sec. (62181.61 ticks, tree = 37.13 MB, solutions = 25)
 116492 70955        cutoff         2.85792e+07   2.80999e+07  1304649    1.68%
 116493 70954    infeasible         2.85792e+07   2.80999e+07  1304649    1.68%
 116494 70953        cutoff         2.85792e+07   2.80999e+07  1304672    1.68%
 116495 70952        cutoff         2.85792e+07   2.80999e+07  1304704    1.68%
 116496 70951    infeasible         2.85792e+07   2.80999e+07  1304704    1.68%
 116497 70950    infeasible         2.85792e+07   2.80999e+07  1304704    1.68%
 116498 70949        cutoff         2.85792e+07   2.80999e+07  1304750    1.68%
 116499 70948        cutoff         2.85792e+07   2.80999e+07  1304809    1.68%
 116500 70947        cutoff         2.85792e+07   2.80999e+07  1304862    1.68%
 116501 70946        cutoff         2.85792e+07   2.80999e+07  1304912    1.68%
Elapsed time = 54.44 sec. (66003.70 ticks, tree = 39.14 MB, solutions = 25)
 122708 74944   2.82818e+07    26   2.85792e+07   2.80999e+07  1384108    1.68%
 122709 74945   2.82912e+07    26   2.85792e+07   2.80999e+07  1384111    1.68%
 122710 74946   2.82915e+07    25   2.85792e+07   2.80999e+07  1384112    1.68%
 122711 74946   2.83310e+07    25   2.85792e+07   2.80999e+07  1384118    1.68%
 122712 74947   2.83343e+07    24   2.85792e+07   2.80999e+07  1384119    1.68%
 122713 74948   2.83391e+07    25   2.85792e+07   2.80999e+07  1384124    1.68%
 122714 74948   2.83395e+07    23   2.85792e+07   2.80999e+07  1384125    1.68%
 122715 74948   2.83497e+07    25   2.85792e+07   2.80999e+07  1384130    1.68%
 122716 74947    infeasible         2.85792e+07   2.80999e+07  1384138    1.68%
 122717 74948   2.80999e+07    21   2.85792e+07   2.80999e+07  1384173    1.68%
Elapsed time = 57.97 sec. (69822.75 ticks, tree = 41.16 MB, solutions = 25)
*125001+73409                       2.85186e+07   2.80999e+07             1.47%
 128738 76184   2.81713e+07    23   2.85186e+07   2.80999e+07  1461188    1.47%
 128739 76185   2.81721e+07    23   2.85186e+07   2.80999e+07  1461190    1.47%
 128740 76186   2.81792e+07    22   2.85186e+07   2.80999e+07  1461194    1.47%
 128741 76187   2.81798e+07    21   2.85186e+07   2.80999e+07  1461197    1.47%
 128742 76188   2.82039e+07    22   2.85186e+07   2.80999e+07  1461203    1.47%
 128743 76189   2.82039e+07    23   2.85186e+07   2.80999e+07  1461205    1.47%
 128744 76190   2.82948e+07    23   2.85186e+07   2.80999e+07  1461216    1.47%
 128745 76191   2.83773e+07    21   2.85186e+07   2.80999e+07  1461224    1.47%
 128746 76192   2.83819e+07    21   2.85186e+07   2.80999e+07  1461225    1.47%
 128747 76193   2.83872e+07    24   2.85186e+07   2.80999e+07  1461229    1.47%
Elapsed time = 61.57 sec. (73640.63 ticks, tree = 41.68 MB, solutions = 26)
 134641 80261   2.83353e+07    20   2.85186e+07   2.80999e+07  1537036    1.47%
 134642 80262   2.83388e+07    20   2.85186e+07   2.80999e+07  1537040    1.47%
 134643 80261        cutoff         2.85186e+07   2.80999e+07  1537044    1.47%
 134644 80261   2.83584e+07    17   2.85186e+07   2.80999e+07  1537048    1.47%
 134645 80260        cutoff         2.85186e+07   2.80999e+07  1537050    1.47%
 134646 80261   2.81007e+07    27   2.85186e+07   2.80999e+07  1537144    1.47%
 134647 80260    infeasible         2.85186e+07   2.80999e+07  1537144    1.47%
 134648 80259    infeasible         2.85186e+07   2.80999e+07  1537144    1.47%
 134649 80258        cutoff         2.85186e+07   2.80999e+07  1537190    1.47%
 134650 80259   2.80999e+07    25   2.85186e+07   2.80999e+07  1537213    1.47%
Elapsed time = 65.12 sec. (77461.72 ticks, tree = 43.72 MB, solutions = 26)
 141619 85069   2.81347e+07    27   2.85186e+07   2.80999e+07  1613572    1.47%
 141620 85070   2.81350e+07    20   2.85186e+07   2.80999e+07  1613575    1.47%
 141621 85071   2.81350e+07    21   2.85186e+07   2.80999e+07  1613576    1.47%
 141622 85072   2.81845e+07    23   2.85186e+07   2.80999e+07  1613591    1.47%
 141623 85071        cutoff         2.85186e+07   2.80999e+07  1613606    1.47%
 141624 85072   2.83006e+07    27   2.85186e+07   2.80999e+07  1613612    1.47%
 141625 85073   2.83011e+07    26   2.85186e+07   2.80999e+07  1613613    1.47%
 141626 85074   2.83036e+07    25   2.85186e+07   2.80999e+07  1613615    1.47%
 141627 85075   2.83047e+07    27   2.85186e+07   2.80999e+07  1613616    1.47%
 141628 85074        cutoff         2.85186e+07   2.80999e+07  1613617    1.47%
Elapsed time = 68.62 sec. (81279.43 ticks, tree = 46.13 MB, solutions = 26)
 148881 89536   2.81910e+07    24   2.85186e+07   2.80999e+07  1685349    1.47%
 148882 89537   2.81914e+07    22   2.85186e+07   2.80999e+07  1685351    1.47%
 148883 89538   2.81914e+07    23   2.85186e+07   2.80999e+07  1685352    1.47%
 148884 89539   2.81916e+07    23   2.85186e+07   2.80999e+07  1685353    1.47%
 148885 89540   2.81916e+07    23   2.85186e+07   2.80999e+07  1685354    1.47%
 148886 89541   2.82052e+07    23   2.85186e+07   2.80999e+07  1685361    1.47%
 148887 89542   2.82054e+07    23   2.85186e+07   2.80999e+07  1685363    1.47%
 148888 89543   2.82124e+07    22   2.85186e+07   2.80999e+07  1685367    1.47%
 148889 89544   2.82742e+07    23   2.85186e+07   2.80999e+07  1685372    1.47%
 148890 89545   2.82759e+07    23   2.85186e+07   2.80999e+07  1685373    1.47%
Elapsed time = 72.06 sec. (85096.05 ticks, tree = 48.41 MB, solutions = 26)
 155701 94075   2.80999e+07    26   2.85186e+07   2.80999e+07  1765874    1.47%
 155702 94076   2.80999e+07    25   2.85186e+07   2.80999e+07  1765875    1.47%
 155703 94077   2.80999e+07    26   2.85186e+07   2.80999e+07  1765896    1.47%
 155704 94078   2.80999e+07    24   2.85186e+07   2.80999e+07  1765905    1.47%
 155705 94079   2.80999e+07    22   2.85186e+07   2.80999e+07  1765908    1.47%
 155706 94080   2.80999e+07    23   2.85186e+07   2.80999e+07  1765912    1.47%
 155707 94081   2.80999e+07    25   2.85186e+07   2.80999e+07  1765918    1.47%
 155708 94082   2.80999e+07    24   2.85186e+07   2.80999e+07  1765925    1.47%
 155709 94083   2.80999e+07    19   2.85186e+07   2.80999e+07  1765927    1.47%
 155710 94084   2.80999e+07    20   2.85186e+07   2.80999e+07  1765942    1.47%
Elapsed time = 75.71 sec. (89074.90 ticks, tree = 50.66 MB, solutions = 26)
 162041 98269   2.80999e+07    32   2.85186e+07   2.80999e+07  1846814    1.47%
 162042 98270   2.80999e+07    30   2.85186e+07   2.80999e+07  1846823    1.47%
 162043 98271   2.80999e+07    26   2.85186e+07   2.80999e+07  1846832    1.47%
 162044 98272   2.80999e+07    32   2.85186e+07   2.80999e+07  1846875    1.47%
 162045 98273   2.80999e+07    30   2.85186e+07   2.80999e+07  1846876    1.47%
 162046 98274   2.80999e+07    28   2.85186e+07   2.80999e+07  1846877    1.47%
 162047 98275   2.80999e+07    26   2.85186e+07   2.80999e+07  1846915    1.47%
 162048 98276   2.81699e+07    24   2.85186e+07   2.80999e+07  1846948    1.47%
 162049 98277   2.82107e+07    26   2.85186e+07   2.80999e+07  1846955    1.47%
 162050 98278   2.82153e+07    24   2.85186e+07   2.80999e+07  1846962    1.47%
Elapsed time = 79.26 sec. (92895.20 ticks, tree = 52.73 MB, solutions = 26)
 169038 103747   2.80999e+07    23   2.85186e+07   2.80999e+07  1923876    1.47%
 169039 103748   2.80999e+07    24   2.85186e+07   2.80999e+07  1923889    1.47%
 169040 103749   2.80999e+07    24   2.85186e+07   2.80999e+07  1923909    1.47%
 169041 103750   2.80999e+07    23   2.85186e+07   2.80999e+07  1923917    1.47%
 169042 103751   2.80999e+07    22   2.85186e+07   2.80999e+07  1923923    1.47%
 169043 103752   2.80999e+07    23   2.85186e+07   2.80999e+07  1923937    1.47%
 169044 103753   2.80999e+07    25   2.85186e+07   2.80999e+07  1923953    1.47%
 169045 103754   2.80999e+07    22   2.85186e+07   2.80999e+07  1923956    1.47%
 169046 103755   2.80999e+07    20   2.85186e+07   2.80999e+07  1923962    1.47%
 169047 103756   2.80999e+07    20   2.85186e+07   2.80999e+07  1923967    1.47%
Elapsed time = 82.72 sec. (96714.13 ticks, tree = 55.55 MB, solutions = 26)
 176113 108955   2.80999e+07    29   2.85186e+07   2.80999e+07  2004651    1.47%
 176114 108956   2.81316e+07    26   2.85186e+07   2.80999e+07  2004653    1.47%
 176115 108957   2.81318e+07    26   2.85186e+07   2.80999e+07  2004654    1.47%
 176116 108958   2.81602e+07    27   2.85186e+07   2.80999e+07  2004669    1.47%
 176117 108959   2.81604e+07    26   2.85186e+07   2.80999e+07  2004671    1.47%
 176118 108960   2.81608e+07    26   2.85186e+07   2.80999e+07  2004673    1.47%
 176119 108961   2.81937e+07    23   2.85186e+07   2.80999e+07  2004694    1.47%
 176120 108962   2.81943e+07    24   2.85186e+07   2.80999e+07  2004695    1.47%
 176121 108963   2.81946e+07    23   2.85186e+07   2.80999e+07  2004696    1.47%
 176122 108964   2.83133e+07    22   2.85186e+07   2.80999e+07  2004701    1.47%
Elapsed time = 86.25 sec. (100532.38 ticks, tree = 58.26 MB, solutions = 26)
 182701 113248   2.84710e+07    20   2.85186e+07   2.80999e+07  2084967    1.47%
 182702 113247        cutoff         2.85186e+07   2.80999e+07  2084969    1.47%
 182703 113248   2.80999e+07    26   2.85186e+07   2.80999e+07  2084994    1.47%
 182704 113249   2.80999e+07    26   2.85186e+07   2.80999e+07  2085017    1.47%
 182705 113250   2.80999e+07    26   2.85186e+07   2.80999e+07  2085070    1.47%
 182706 113251   2.80999e+07    22   2.85186e+07   2.80999e+07  2085081    1.47%
 182707 113252   2.80999e+07    24   2.85186e+07   2.80999e+07  2085112    1.47%
 182708 113253   2.80999e+07    24   2.85186e+07   2.80999e+07  2085131    1.47%
 182709 113254   2.80999e+07    23   2.85186e+07   2.80999e+07  2085154    1.47%
 182710 113255   2.80999e+07    22   2.85186e+07   2.80999e+07  2085162    1.47%
Elapsed time = 89.84 sec. (104459.68 ticks, tree = 60.50 MB, solutions = 26)
 185901 115457   2.80999e+07    26   2.85186e+07   2.80999e+07  2126249    1.47%
 185902 115458   2.81993e+07    23   2.85186e+07   2.80999e+07  2126321    1.47%
 185903 115459   2.80999e+07    25   2.85186e+07   2.80999e+07  2126362    1.47%
 185904 115460   2.80999e+07    28   2.85186e+07   2.80999e+07  2126367    1.47%
 185905 115461   2.80999e+07    26   2.85186e+07   2.80999e+07  2126384    1.47%
 185906 115462   2.80999e+07    28   2.85186e+07   2.80999e+07  2126408    1.47%
 185907 115463   2.80999e+07    24   2.85186e+07   2.80999e+07  2126425    1.47%
 185908 115464   2.80999e+07    29   2.85186e+07   2.80999e+07  2126450    1.47%
 185909 115465   2.80999e+07    24   2.85186e+07   2.80999e+07  2126464    1.47%
 185910 115466   2.80999e+07    26   2.85186e+07   2.80999e+07  2126491    1.47%
Elapsed time = 93.20 sec. (108390.24 ticks, tree = 61.63 MB, solutions = 26)
 191132 118957   2.81440e+07    22   2.85186e+07   2.80999e+07  2194114    1.47%
 191133 118958   2.81797e+07    23   2.85186e+07   2.80999e+07  2194117    1.47%
 191134 118959   2.81797e+07    21   2.85186e+07   2.80999e+07  2194118    1.47%
 191135 118960   2.83148e+07    25   2.85186e+07   2.80999e+07  2194128    1.47%
 191136 118961   2.83494e+07    27   2.85186e+07   2.80999e+07  2194133    1.47%
 191137 118961   2.83613e+07    22   2.85186e+07   2.80999e+07  2194137    1.47%
 191138 118961   2.83828e+07    19   2.85186e+07   2.80999e+07  2194143    1.47%
 191139 118961   2.84633e+07    17   2.85186e+07   2.80999e+07  2194144    1.47%
 191140 118960    infeasible         2.85186e+07   2.80999e+07  2194144    1.47%
 191141 118961   2.80999e+07    24   2.85186e+07   2.80999e+07  2194257    1.47%
Elapsed time = 96.68 sec. (112210.07 ticks, tree = 63.44 MB, solutions = 26)

Cover cuts applied:  361
Mixed integer rounding cuts applied:  4
Gomory fractional cuts applied:  4

Root node processing (before b&c):
  Real time             =    0.03 sec. (37.70 ticks)
Sequential b&c:
  Real time             =   99.97 sec. (115307.23 ticks)
                          ------------
Total (root+branch&cut) =  100.00 sec. (115344.93 ticks)

Solution pool: 26 solutions saved.

MIP - Time limit exceeded, integer feasible:  Objective =  2.8518588000e+07
Current MIP best bound =  2.8099855000e+07 (gap = 418733, 1.47%)
Solution time =  100.00 sec.  Iterations = 2257167  Nodes = 196170 (122011)
Deterministic time = 115344.94 ticks  (1153.45 ticks/sec)


Incumbent solution written to file '/tmp/tmpZdasjX.cplex.sol'.
